
  22   10
  10   10   10   10   10   10   10   10   10   10

   0   0   0   0   0   0   0   0   0   0   0   3 2 4 6 
   7  10  10  10  10  10  10  10  10  10  10   3 15 11 3 
  10  10  10  10  10  10  10  10  10  10  10   2 16 5 
   4  10  10  10  10  10  10  10  10  10  10   4 15 11 10 8 
   9  10  10  10  10  10  10  10  10  10  10   2 10 7 
   1  10  10  10  10  10  10  10  10  10  10   3 15 11 9 
   8  10  10  10  10  10  10  10  10  10  10   1 8 
   1  10  10  10  10  10  10  10  10  10  10   1 9 
   8  10  10  10  10  10  10  10  10  10  10   4 19 18 14 12 
   4  10  10  10  10  10  10  10  10  10  10   2 18 12 
   8  10  10  10  10  10  10  10  10  10  10   2 18 14 
   3  10  10  10  10  10  10  10  10  10  10   1 13 
   1  10  10  10  10  10  10  10  10  10  10   1 17 
   2  10  10  10  10  10  10  10  10  10  10   1 17 
   6  10  10  10  10  10  10  10  10  10  10   1 19 
   1  10  10  10  10  10  10  10  10  10  10   1 19 
   8  10  10  10  10  10  10  10  10  10  10   1 20 
   3  10  10  10  10  10  10  10  10  10  10   1 21 
   6  10  10  10  10  10  10  10  10  10  10   1 20 
   4  10  10  10  10  10  10  10  10  10  10   1 22
   3  10  10  10  10  10  10  10  10  10  10   1 22
   0   0   0   0   0   0   0   0   0   0   0   0 
